CMD:
./solvers/bin/cadical --plain --no-reduce -t 1600 ./data/cnfs//ridecore/ridecore.47.cnf

c --- [ banner ] -------------------------------------------------------------
c 
c CaDiCaL SAT Solver
c Copyright (c) 2016-2024
c A. Biere, M. Fleury, N. Froleyks, K. Fazekas, F. Pollitt, T. Faller
c JKU Linz, University of Freiburg, TU Wien
c 
c Version 2.1.3 5296d3d2a9bf48c154ab2acb5e44625776d821bf
c g++ (Gentoo 12.3.1_p20230526 p2) 12.3.1 20230526 -Wall -Wextra -O3 -DNDEBUG
c Sat Aug 9 07:26:21 PDT 2025 Linux cedar2.int.cedar.computecanada.ca 5.14.0-362.24.2.el9_3.x86_64 x86_64
c 
c --- [ limit ] --------------------------------------------------------------
c 
c setting time limit to 1600 seconds real time (due to '-t 1600')
c 
c --- [ parsing input ] ------------------------------------------------------
c 
c reading DIMACS file from './data/cnfs//ridecore/ridecore.47.cnf'
c opening file to read './data/cnfs//ridecore/ridecore.47.cnf'
c found 'p cnf 26258980 78567567' header
c parsed 78567567 clauses in 13.94 seconds process time
c 
c --- [ options ] ------------------------------------------------------------
c 
c   --compact=false                (different from default 'true')
c   --decompose=false              (different from default 'true')
c   --deduplicate=false            (different from default 'true')
c   --elim=false                   (different from default 'true')
c   --probe=false                  (different from default 'true')
c   --reduce=false                 (different from default 'true')
c   --subsume=false                (different from default 'true')
c   --ternary=false                (different from default 'true')
c   --transred=false               (different from default 'true')
c   --vivify=false                 (different from default 'true')
c 
c --- [ solving ] ------------------------------------------------------------
c 
c time measured in process time since initialization
c 
c  seconds    reductions  redundant   irredundant
c          MB     restarts       trail          variables
c            level   conflicts       glue             remaining
c 
c * 13.94 9879  0 0   0    0    0  0% 0 55941574 9550364 36%
c { 17.24 9948  0 0   0    0    0  0% 0 55941574 9550364 36%
c i 17.43 9950 2254 0   0   21   13 64% 3 55941574 9550289 36%
c i 18.02 9952 1440 0   0  100   54 64% 2 55941574 9550190 36%
c i 18.05 9952 1302 0   0  109   58 64% 2 55941574 9548956 36%
c i 18.70 9956 804 0   5  165   98 64% 3 55941574 9548955 36%
c i 18.70 9956 797 0   5  166   98 64% 3 55941574 9548954 36%
c i 18.70 9956 790 0   5  167   98 64% 3 55941574 9548953 36%
c i 18.71 9956 776 0   5  169   99 64% 3 55941574 9548947 36%
c i 18.80 9956 700 0   5  182  111 64% 3 55941574 9548946 36%
c i 18.94 9957 625 0   7  200  126 64% 3 55941574 9548941 36%
c i 19.63 9958 497 0  16  244  163 64% 3 55941574 9548940 36%
c i 19.63 9958 494 0  16  245  163 64% 3 55941574 9548939 36%
c i 19.63 9958 491 0  16  246  163 64% 3 55941574 9548937 36%
c i 19.65 9958 483 0  16  249  165 64% 3 55941574 9548931 36%
c i 19.74 9958 458 0  17  260  174 65% 3 55941574 9548924 36%
c i 19.75 9958 456 0  17  261  174 64% 3 55941574 9546485 36%
c i 20.04 9958 423 0  18  278  189 65% 3 55941574 9534384 36%
c i 20.49 9960 442 0  21  315  223 65% 3 55941574 9534376 36%
c i 20.52 9960 437 0  22  319  225 65% 3 55941574 9528177 36%
c 
c  seconds     reductions  redundant   irredundant
c          MB      restarts       trail          variables
c             level   conflicts       glue             remaining
c 
c i 20.61 9960 430 0  22  325  229 65% 3 55941574 9528169 36%
c i 21.29 9961 380 0  23  370  269 65% 3 55941574 9528168 36%
c i 21.47 9961 364 0  27  386  283 65% 3 55941574 9528154 36%
c i 21.48 9961 362 0  28  389  284 65% 3 55941574 9507978 36%
c i 21.49 9961 357 0  29  393  286 65% 3 55941574 9507696 36%
c i 21.50 9961 348 0  29  402  294 65% 3 55941574 9507694 36%
c i 21.53 9961 338 0  29  414  304 65% 3 55941574 9507693 36%
c i 21.62 9961 327 0  29  426  315 65% 3 55941574 9507692 36%
c i 21.75 9962 315 0  29  440  327 65% 3 55941574 9507024 36%
c i 21.94 9962 304 0  29  454  340 65% 3 55941574 9498389 36%
c i 22.00 9962 296 0  29  464  349 65% 3 55941574 9489784 36%
c i 22.53 9963 289 0  31  496  367 65% 3 55941574 9489779 36%
c i 22.72 9964 280 0  37  514  383 65% 3 55941574 9489772 36%
c i 22.78 9964 276 0  38  524  390 65% 3 55941574 9487310 36%
c i 22.82 9964 275 0  39  525  390 65% 3 55941574 9433863 36%
c i 22.90 9964 272 0  40  531  395 65% 3 55941574 9433654 36%
c i 23.27 9964 251 0  46  571  432 65% 3 55941574 9416875 36%
c i 23.32 9964 248 0  48  578  436 65% 3 55941574 9416872 36%
c i 23.41 9964 243 0  48  588  444 65% 3 55941574 9416870 36%
c i 23.41 9964 242 0  48  590  444 65% 3 55941574 9416865 36%
c 
c  seconds     reductions  redundant   irredundant
c          MB      restarts       trail          variables
c             level   conflicts       glue             remaining
c 
c i 23.62 9964 229 0  50  624  472 65% 3 55941574 9415799 36%
c i 23.77 9964 220 0  50  652  495 65% 3 55941574 9415514 36%
c i 23.77 9964 219 0  50  653  495 65% 3 55941574 9415002 36%
c i 23.78 9964 219 0  50  654  495 65% 3 55941574 9415001 36%
... skipped 3377214 lines ...
v -26258620 26258621 -26258622 -26258623 26258624 -26258625 26258626 -26258627
v -26258628 -26258629 26258630 -26258631 -26258632 26258633 -26258634
v -26258635 -26258636 26258637 -26258638 -26258639 26258640 -26258641
v -26258642 26258643 -26258644 -26258645 26258646 -26258647 -26258648 26258649
v -26258650 26258651 -26258652 -26258653 -26258654 26258655 -26258656
v -26258657 26258658 -26258659 -26258660 -26258661 26258662 -26258663
v -26258664 26258665 -26258666 -26258667 26258668 -26258669 -26258670 26258671
v -26258672 -26258673 26258674 -26258675 26258676 -26258677 -26258678
v -26258679 26258680 -26258681 -26258682 26258683 -26258684 -26258685
v -26258686 26258687 -26258688 -26258689 26258690 -26258691 -26258692 26258693
v -26258694 -26258695 26258696 -26258697 -26258698 26258699 -26258700 26258701
v -26258702 -26258703 -26258704 26258705 -26258706 -26258707 26258708
v -26258709 -26258710 26258711 -26258712 -26258713 26258714 -26258715
v -26258716 26258717 -26258718 -26258719 26258720 -26258721 -26258722 26258723
v -26258724 -26258725 26258726 -26258727 -26258728 -26258729 26258730
v -26258731 -26258732 26258733 -26258734 -26258735 26258736 -26258737
v -26258738 26258739 -26258740 -26258741 26258742 -26258743 -26258744 26258745
v -26258746 -26258747 26258748 -26258749 -26258750 26258751 -26258752
v -26258753 -26258754 26258755 -26258756 -26258757 26258758 -26258759
v -26258760 26258761 -26258762 -26258763 26258764 -26258765 -26258766 26258767
v -26258768 -26258769 26258770 -26258771 -26258772 26258773 -26258774
v -26258775 26258776 -26258777 -26258778 -26258779 26258780 -26258781
v -26258782 26258783 -26258784 -26258785 26258786 -26258787 -26258788 26258789
v -26258790 -26258791 26258792 -26258793 -26258794 26258795 -26258796
v -26258797 26258798 -26258799 -26258800 26258801 -26258802 -26258803
v -26258804 26258805 -26258806 -26258807 26258808 -26258809 -26258810 26258811
v -26258812 -26258813 26258814 -26258815 -26258816 26258817 -26258818
v -26258819 26258820 -26258821 -26258822 26258823 -26258824 -26258825 26258826
v -26258827 -26258828 -26258829 26258830 -26258831 -26258832 26258833
v -26258834 -26258835 26258836 -26258837 -26258838 26258839 -26258840
v -26258841 26258842 -26258843 -26258844 26258845 -26258846 -26258847 26258848
v -26258849 -26258850 26258851 -26258852 -26258853 -26258854 26258855
v -26258856 -26258857 26258858 -26258859 -26258860 26258861 -26258862
v -26258863 26258864 -26258865 -26258866 26258867 -26258868 -26258869 26258870
v -26258871 -26258872 26258873 -26258874 -26258875 26258876 -26258877
v -26258878 -26258879 26258880 -26258881 -26258882 26258883 -26258884
v -26258885 26258886 -26258887 -26258888 26258889 -26258890 -26258891 26258892
v -26258893 -26258894 26258895 -26258896 -26258897 26258898 -26258899
v -26258900 26258901 -26258902 -26258903 -26258904 26258905 -26258906
v -26258907 26258908 -26258909 -26258910 26258911 -26258912 -26258913 26258914
v -26258915 -26258916 26258917 -26258918 -26258919 26258920 -26258921
v -26258922 26258923 -26258924 -26258925 26258926 -26258927 -26258928
v -26258929 26258930 -26258931 -26258932 26258933 -26258934 -26258935 26258936
v -26258937 -26258938 26258939 -26258940 -26258941 26258942 -26258943
v -26258944 26258945 -26258946 -26258947 26258948 -26258949 -26258950 26258951
v -26258952 -26258953 -26258954 26258955 -26258956 -26258957 26258958
v -26258959 -26258960 -26258961 26258962 -26258963 -26258964 26258965
v -26258966 -26258967 26258968 -26258969 -26258970 26258971 -26258972
v -26258973 26258974 -26258975 26258976 -26258977 -26258978 26258979 -26258980
v 0
c 
c --- [ run-time profiling ] -------------------------------------------------
c 
c process time taken by individual solving procedures
c (percentage relative to process time for solving)
c 
c       669.17  100.00% search
c       403.17   60.25% unstable
c       245.84   36.74% stable
c        16.86    2.52% walk
c        13.94    2.08% parse
c         3.30    0.49% lucky
c         0.00    0.00% simplify
c   =================================
c       669.17   97.77% solve
c 
c last line shows process time for solving
c (percentage relative to total process time)
c 
c --- [ statistics ] ---------------------------------------------------------
c 
c chronological:             17879        47.39 %  of conflicts
c conflicts:                 37729        56.38    per second
c decisions:                533623       797.44    per second
c fixed:                  18654867        71.04 %  of all variables
c learned:                   33938        89.95 %  per conflict
c learned_lits:            3074101       100.00 %  learned literals
c minimized:                     0         0.00 %  learned literals
c shrunken:                 187984         6.12 %  learned literals
c minishrunken:             502708        16.35 %  learned literals
c otfs:                        241         0.64 %  of conflict
c propagations:         4457266931         6.66 M  per second
c rephased:                      8      4716.12    interval
c restarts:                   1914        19.71    interval
c stabilizing:                   3        44.33 %  of conflicts
c subsumed:                   1267         0.00 %  of all clauses
c strengthened:                240         0.00 %  of all clauses
c walked:                        1     37729.00    interval
c 
c seconds are measured in process time for solving
c 
c --- [ resources ] ----------------------------------------------------------
c 
c total process time since initialization:       684.41    seconds
c total real time since initialization:          688.90    seconds
c maximum resident set size of process:        10195.71    MB
c 
c --- [ shutting down ] ------------------------------------------------------
c 
c exit 10
